kp_lp_files/pr152_n453_uncorr-similar-weights_01-kp.lp
MAXIMIZE
1 z0 + 896 z1 + 367 z2 + 690 z3 + 613 z4 + 874 z5 + 122 z6 + 486 z7 + 823 z8 + 463 z9 + 589 z10 + 325 z11 + 1000 z12 + 776 z13 + 123 z14 + 356 z15 + 305 z16 + 47 z17 + 645 z18 + 139 z19 + 247 z20 + 211 z21 + 100 z22 + 627 z23 + 760 z24 + 776 z25 + 475 z26 + 937 z27 + 101 z28 + 281 z29 + 751 z30 + 530 z31 + 240 z32 + 248 z33 + 768 z34 + 31 z35 + 613 z36 + 881 z37 + 367 z38 + 712 z39 + 410 z40 + 157 z41 + 824 z42 + 242 z43 + 472 z44 + 722 z45 + 775 z46 + 371 z47 + 337 z48 + 885 z49 + 204 z50 + 594 z51 + 226 z52 + 226 z53 + 921 z54 + 537 z55 + 112 z56 + 959 z57 + 392 z58 + 709 z59 + 940 z60 + 943 z61 + 79 z62 + 922 z63 + 361 z64 + 947 z65 + 861 z66 + 937 z67 + 754 z68 + 872 z69 + 636 z70 + 459 z71 + 390 z72 + 141 z73 + 111 z74 + 588 z75 + 6 z76 + 155 z77 + 723 z78 + 723 z79 + 667 z80 + 829 z81 + 487 z82 + 590 z83 + 370 z84 + 823 z85 + 173 z86 + 56 z87 + 977 z88 + 681 z89 + 689 z90 + 933 z91 + 809 z92 + 587 z93 + 686 z94 + 466 z95 + 356 z96 + 784 z97 + 862 z98 + 223 z99 + 541 z100 + 61 z101 + 416 z102 + 62 z103 + 205 z104 + 152 z105 + 913 z106 + 267 z107 + 249 z108 + 187 z109 + 174 z110 + 939 z111 + 519 z112 + 56 z113 + 381 z114 + 551 z115 + 128 z116 + 812 z117 + 753 z118 + 544 z119 + 684 z120 + 830 z121 + 725 z122 + 330 z123 + 115 z124 + 38 z125 + 445 z126 + 619 z127 + 648 z128 + 896 z129 + 658 z130 + 306 z131 + 806 z132 + 800 z133 + 612 z134 + 354 z135 + 300 z136 + 174 z137 + 751 z138 + 126 z139 + 603 z140 + 665 z141 + 209 z142 + 308 z143 + 308 z144 + 677 z145 + 863 z146 + 292 z147 + 444 z148 + 295 z149 + 413 z150 + 72 z151 + 321 z152 + 981 z153 + 797 z154 + 507 z155 + 715 z156 + 512 z157 + 892 z158 + 76 z159 + 22 z160 + 643 z161 + 866 z162 + 74 z163 + 508 z164 + 243 z165 + 776 z166 + 326 z167 + 694 z168 + 662 z169 + 17 z170 + 654 z171 + 129 z172 + 662 z173 + 123 z174 + 182 z175 + 554 z176 + 421 z177 + 685 z178 + 470 z179 + 77 z180 + 264 z181 + 624 z182 + 961 z183 + 55 z184 + 254 z185 + 880 z186 + 921 z187 + 809 z188 + 680 z189 + 554 z190 + 62 z191 + 573 z192 + 568 z193 + 37 z194 + 910 z195 + 632 z196 + 211 z197 + 67 z198 + 763 z199 + 568 z200 + 681 z201 + 814 z202 + 514 z203 + 326 z204 + 41 z205 + 909 z206 + 192 z207 + 59 z208 + 352 z209 + 678 z210 + 885 z211 + 596 z212 + 400 z213 + 411 z214 + 746 z215 + 535 z216 + 82 z217 + 399 z218 + 412 z219 + 636 z220 + 983 z221 + 360 z222 + 120 z223 + 870 z224 + 808 z225 + 4 z226 + 391 z227 + 810 z228 + 819 z229 + 958 z230 + 209 z231 + 717 z232 + 359 z233 + 895 z234 + 419 z235 + 504 z236 + 588 z237 + 719 z238 + 323 z239 + 341 z240 + 965 z241 + 859 z242 + 456 z243 + 760 z244 + 135 z245 + 390 z246 + 780 z247 + 496 z248 + 1 z249 + 906 z250 + 171 z251 + 437 z252 + 164 z253 + 142 z254 + 876 z255 + 265 z256 + 762 z257 + 319 z258 + 780 z259 + 41 z260 + 33 z261 + 720 z262 + 887 z263 + 907 z264 + 551 z265 + 732 z266 + 969 z267 + 679 z268 + 228 z269 + 168 z270 + 654 z271 + 48 z272 + 549 z273 + 260 z274 + 112 z275 + 450 z276 + 925 z277 + 240 z278 + 375 z279 + 875 z280 + 299 z281 + 969 z282 + 215 z283 + 435 z284 + 648 z285 + 515 z286 + 351 z287 + 582 z288 + 32 z289 + 901 z290 + 902 z291 + 494 z292 + 766 z293 + 602 z294 + 494 z295 + 147 z296 + 418 z297 + 628 z298 + 219 z299 + 837 z300 + 340 z301 + 441 z302 + 315 z303 + 109 z304 + 343 z305 + 616 z306 + 532 z307 + 522 z308 + 897 z309 + 514 z310 + 986 z311 + 888 z312 + 759 z313 + 323 z314 + 176 z315 + 919 z316 + 67 z317 + 503 z318 + 556 z319 + 716 z320 + 319 z321 + 471 z322 + 517 z323 + 105 z324 + 153 z325 + 140 z326 + 886 z327 + 692 z328 + 319 z329 + 560 z330 + 642 z331 + 696 z332 + 258 z333 + 250 z334 + 639 z335 + 372 z336 + 132 z337 + 856 z338 + 453 z339 + 503 z340 + 539 z341 + 819 z342 + 126 z343 + 430 z344 + 598 z345 + 696 z346 + 597 z347 + 697 z348 + 52 z349 + 652 z350 + 625 z351 + 91 z352 + 546 z353 + 317 z354 + 313 z355 + 89 z356 + 283 z357 + 917 z358 + 806 z359 + 912 z360 + 511 z361 + 168 z362 + 758 z363 + 392 z364 + 646 z365 + 114 z366 + 5 z367 + 989 z368 + 228 z369 + 131 z370 + 699 z371 + 386 z372 + 229 z373 + 621 z374 + 371 z375 + 574 z376 + 495 z377 + 674 z378 + 255 z379 + 352 z380 + 588 z381 + 176 z382 + 935 z383 + 325 z384 + 167 z385 + 550 z386 + 457 z387 + 478 z388 + 892 z389 + 942 z390 + 991 z391 + 988 z392 + 866 z393 + 123 z394 + 86 z395 + 70 z396 + 186 z397 + 314 z398 + 163 z399 + 119 z400 + 774 z401 + 74 z402 + 661 z403 + 386 z404 + 741 z405 + 541 z406 + 152 z407 + 143 z408 + 131 z409 + 47 z410 + 574 z411 + 229 z412 + 275 z413 + 787 z414 + 661 z415 + 320 z416 + 815 z417 + 699 z418 + 709 z419 + 458 z420 + 323 z421 + 286 z422 + 721 z423 + 907 z424 + 743 z425 + 185 z426 + 843 z427 + 794 z428 + 524 z429 + 233 z430 + 841 z431 + 491 z432 + 427 z433 + 893 z434 + 396 z435 + 25 z436 + 547 z437 + 638 z438 + 590 z439 + 90 z440 + 506 z441 + 615 z442 + 65 z443 + 920 z444 + 968 z445 + 839 z446 + 828 z447 + 52 z448 + 145 z449 + 491 z450 + 263 z451 + 723 z452
SUBJECT TO
1008 z0 + 1006 z1 + 1006 z2 + 1001 z3 + 1006 z4 + 1001 z5 + 1009 z6 + 1004 z7 + 1001 z8 + 1003 z9 + 1004 z10 + 1009 z11 + 1006 z12 + 1005 z13 + 1000 z14 + 1000 z15 + 1007 z16 + 1006 z17 + 1008 z18 + 1000 z19 + 1009 z20 + 1009 z21 + 1007 z22 + 1004 z23 + 1002 z24 + 1006 z25 + 1006 z26 + 1007 z27 + 1008 z28 + 1008 z29 + 1008 z30 + 1006 z31 + 1004 z32 + 1005 z33 + 1000 z34 + 1003 z35 + 1007 z36 + 1004 z37 + 1007 z38 + 1000 z39 + 1007 z40 + 1009 z41 + 1000 z42 + 1000 z43 + 1005 z44 + 1006 z45 + 1001 z46 + 1006 z47 + 1003 z48 + 1008 z49 + 1008 z50 + 1008 z51 + 1006 z52 + 1002 z53 + 1000 z54 + 1006 z55 + 1001 z56 + 1005 z57 + 1001 z58 + 1006 z59 + 1002 z60 + 1006 z61 + 1001 z62 + 1004 z63 + 1000 z64 + 1003 z65 + 1009 z66 + 1009 z67 + 1005 z68 + 1000 z69 + 1001 z70 + 1009 z71 + 1001 z72 + 1005 z73 + 1009 z74 + 1003 z75 + 1001 z76 + 1009 z77 + 1008 z78 + 1009 z79 + 1004 z80 + 1007 z81 + 1004 z82 + 1008 z83 + 1006 z84 + 1007 z85 + 1002 z86 + 1000 z87 + 1005 z88 + 1005 z89 + 1007 z90 + 1005 z91 + 1002 z92 + 1002 z93 + 1003 z94 + 1000 z95 + 1004 z96 + 1001 z97 + 1009 z98 + 1009 z99 + 1006 z100 + 1002 z101 + 1001 z102 + 1001 z103 + 1002 z104 + 1008 z105 + 1009 z106 + 1006 z107 + 1003 z108 + 1009 z109 + 1003 z110 + 1001 z111 + 1004 z112 + 1008 z113 + 1008 z114 + 1004 z115 + 1006 z116 + 1009 z117 + 1008 z118 + 1003 z119 + 1005 z120 + 1004 z121 + 1009 z122 + 1003 z123 + 1000 z124 + 1002 z125 + 1005 z126 + 1009 z127 + 1000 z128 + 1005 z129 + 1006 z130 + 1005 z131 + 1008 z132 + 1002 z133 + 1002 z134 + 1000 z135 + 1008 z136 + 1008 z137 + 1002 z138 + 1001 z139 + 1001 z140 + 1000 z141 + 1006 z142 + 1000 z143 + 1009 z144 + 1009 z145 + 1005 z146 + 1001 z147 + 1007 z148 + 1000 z149 + 1000 z150 + 1007 z151 + 1003 z152 + 1003 z153 + 1004 z154 + 1008 z155 + 1001 z156 + 1007 z157 + 1004 z158 + 1004 z159 + 1008 z160 + 1003 z161 + 1004 z162 + 1004 z163 + 1005 z164 + 1000 z165 + 1006 z166 + 1008 z167 + 1005 z168 + 1008 z169 + 1008 z170 + 1007 z171 + 1006 z172 + 1000 z173 + 1007 z174 + 1008 z175 + 1002 z176 + 1002 z177 + 1009 z178 + 1009 z179 + 1006 z180 + 1001 z181 + 1006 z182 + 1004 z183 + 1001 z184 + 1001 z185 + 1009 z186 + 1009 z187 + 1009 z188 + 1007 z189 + 1008 z190 + 1006 z191 + 1001 z192 + 1003 z193 + 1004 z194 + 1002 z195 + 1007 z196 + 1000 z197 + 1005 z198 + 1003 z199 + 1007 z200 + 1001 z201 + 1007 z202 + 1006 z203 + 1001 z204 + 1007 z205 + 1001 z206 + 1005 z207 + 1001 z208 + 1001 z209 + 1006 z210 + 1006 z211 + 1007 z212 + 1001 z213 + 1003 z214 + 1005 z215 + 1006 z216 + 1009 z217 + 1008 z218 + 1009 z219 + 1002 z220 + 1004 z221 + 1000 z222 + 1005 z223 + 1007 z224 + 1001 z225 + 1001 z226 + 1007 z227 + 1005 z228 + 1002 z229 + 1006 z230 + 1006 z231 + 1000 z232 + 1002 z233 + 1006 z234 + 1006 z235 + 1003 z236 + 1007 z237 + 1008 z238 + 1000 z239 + 1006 z240 + 1000 z241 + 1008 z242 + 1000 z243 + 1001 z244 + 1002 z245 + 1009 z246 + 1008 z247 + 1005 z248 + 1005 z249 + 1000 z250 + 1005 z251 + 1004 z252 + 1003 z253 + 1007 z254 + 1000 z255 + 1008 z256 + 1001 z257 + 1005 z258 + 1002 z259 + 1001 z260 + 1006 z261 + 1001 z262 + 1003 z263 + 1005 z264 + 1003 z265 + 1009 z266 + 1008 z267 + 1004 z268 + 1001 z269 + 1001 z270 + 1009 z271 + 1009 z272 + 1000 z273 + 1000 z274 + 1005 z275 + 1000 z276 + 1005 z277 + 1000 z278 + 1009 z279 + 1004 z280 + 1006 z281 + 1009 z282 + 1005 z283 + 1000 z284 + 1002 z285 + 1004 z286 + 1001 z287 + 1001 z288 + 1000 z289 + 1001 z290 + 1007 z291 + 1001 z292 + 1009 z293 + 1006 z294 + 1008 z295 + 1000 z296 + 1000 z297 + 1006 z298 + 1006 z299 + 1001 z300 + 1005 z301 + 1002 z302 + 1006 z303 + 1000 z304 + 1007 z305 + 1004 z306 + 1008 z307 + 1007 z308 + 1003 z309 + 1008 z310 + 1002 z311 + 1001 z312 + 1005 z313 + 1000 z314 + 1001 z315 + 1002 z316 + 1007 z317 + 1009 z318 + 1009 z319 + 1004 z320 + 1002 z321 + 1009 z322 + 1008 z323 + 1008 z324 + 1007 z325 + 1001 z326 + 1004 z327 + 1003 z328 + 1009 z329 + 1000 z330 + 1000 z331 + 1003 z332 + 1007 z333 + 1008 z334 + 1008 z335 + 1004 z336 + 1001 z337 + 1002 z338 + 1007 z339 + 1008 z340 + 1005 z341 + 1003 z342 + 1002 z343 + 1006 z344 + 1001 z345 + 1003 z346 + 1007 z347 + 1006 z348 + 1008 z349 + 1009 z350 + 1004 z351 + 1007 z352 + 1005 z353 + 1003 z354 + 1005 z355 + 1000 z356 + 1006 z357 + 1000 z358 + 1009 z359 + 1001 z360 + 1002 z361 + 1003 z362 + 1000 z363 + 1003 z364 + 1007 z365 + 1008 z366 + 1007 z367 + 1005 z368 + 1001 z369 + 1008 z370 + 1007 z371 + 1000 z372 + 1008 z373 + 1001 z374 + 1009 z375 + 1006 z376 + 1007 z377 + 1004 z378 + 1001 z379 + 1001 z380 + 1007 z381 + 1008 z382 + 1006 z383 + 1004 z384 + 1002 z385 + 1007 z386 + 1006 z387 + 1005 z388 + 1005 z389 + 1008 z390 + 1007 z391 + 1006 z392 + 1009 z393 + 1005 z394 + 1008 z395 + 1000 z396 + 1006 z397 + 1005 z398 + 1007 z399 + 1002 z400 + 1005 z401 + 1002 z402 + 1004 z403 + 1002 z404 + 1002 z405 + 1007 z406 + 1009 z407 + 1006 z408 + 1009 z409 + 1007 z410 + 1004 z411 + 1005 z412 + 1005 z413 + 1005 z414 + 1007 z415 + 1001 z416 + 1001 z417 + 1002 z418 + 1006 z419 + 1003 z420 + 1004 z421 + 1009 z422 + 1000 z423 + 1004 z424 + 1007 z425 + 1004 z426 + 1007 z427 + 1001 z428 + 1002 z429 + 1005 z430 + 1007 z431 + 1009 z432 + 1009 z433 + 1001 z434 + 1001 z435 + 1003 z436 + 1006 z437 + 1009 z438 + 1003 z439 + 1008 z440 + 1002 z441 + 1002 z442 + 1008 z443 + 1004 z444 + 1008 z445 + 1006 z446 + 1003 z447 + 1003 z448 + 1000 z449 + 1005 z450 + 1001 z451 + 1002 z452 <= 41369
BINARIES
z0
z1
z2
z3
z4
z5
z6
z7
z8
z9
z10
z11
z12
z13
z14
z15
z16
z17
z18
z19
z20
z21
z22
z23
z24
z25
z26
z27
z28
z29
z30
z31
z32
z33
z34
z35
z36
z37
z38
z39
z40
z41
z42
z43
z44
z45
z46
z47
z48
z49
z50
z51
z52
z53
z54
z55
z56
z57
z58
z59
z60
z61
z62
z63
z64
z65
z66
z67
z68
z69
z70
z71
z72
z73
z74
z75
z76
z77
z78
z79
z80
z81
z82
z83
z84
z85
z86
z87
z88
z89
z90
z91
z92
z93
z94
z95
z96
z97
z98
z99
z100
z101
z102
z103
z104
z105
z106
z107
z108
z109
z110
z111
z112
z113
z114
z115
z116
z117
z118
z119
z120
z121
z122
z123
z124
z125
z126
z127
z128
z129
z130
z131
z132
z133
z134
z135
z136
z137
z138
z139
z140
z141
z142
z143
z144
z145
z146
z147
z148
z149
z150
z151
z152
z153
z154
z155
z156
z157
z158
z159
z160
z161
z162
z163
z164
z165
z166
z167
z168
z169
z170
z171
z172
z173
z174
z175
z176
z177
z178
z179
z180
z181
z182
z183
z184
z185
z186
z187
z188
z189
z190
z191
z192
z193
z194
z195
z196
z197
z198
z199
z200
z201
z202
z203
z204
z205
z206
z207
z208
z209
z210
z211
z212
z213
z214
z215
z216
z217
z218
z219
z220
z221
z222
z223
z224
z225
z226
z227
z228
z229
z230
z231
z232
z233
z234
z235
z236
z237
z238
z239
z240
z241
z242
z243
z244
z245
z246
z247
z248
z249
z250
z251
z252
z253
z254
z255
z256
z257
z258
z259
z260
z261
z262
z263
z264
z265
z266
z267
z268
z269
z270
z271
z272
z273
z274
z275
z276
z277
z278
z279
z280
z281
z282
z283
z284
z285
z286
z287
z288
z289
z290
z291
z292
z293
z294
z295
z296
z297
z298
z299
z300
z301
z302
z303
z304
z305
z306
z307
z308
z309
z310
z311
z312
z313
z314
z315
z316
z317
z318
z319
z320
z321
z322
z323
z324
z325
z326
z327
z328
z329
z330
z331
z332
z333
z334
z335
z336
z337
z338
z339
z340
z341
z342
z343
z344
z345
z346
z347
z348
z349
z350
z351
z352
z353
z354
z355
z356
z357
z358
z359
z360
z361
z362
z363
z364
z365
z366
z367
z368
z369
z370
z371
z372
z373
z374
z375
z376
z377
z378
z379
z380
z381
z382
z383
z384
z385
z386
z387
z388
z389
z390
z391
z392
z393
z394
z395
z396
z397
z398
z399
z400
z401
z402
z403
z404
z405
z406
z407
z408
z409
z410
z411
z412
z413
z414
z415
z416
z417
z418
z419
z420
z421
z422
z423
z424
z425
z426
z427
z428
z429
z430
z431
z432
z433
z434
z435
z436
z437
z438
z439
z440
z441
z442
z443
z444
z445
z446
z447
z448
z449
z450
z451
z452
END