kp_sol_files/pr152_n453_uncorr-similar-weights_01-kp.sol
# Objective value = 38606
z0 0
z1 0
z2 0
z3 0
z4 0
z5 0
z6 0
z7 0
z8 0
z9 0
z10 0
z11 0
z12 1
z13 0
z14 0
z15 0
z16 0
z17 0
z18 0
z19 0
z20 0
z21 0
z22 0
z23 0
z24 0
z25 0
z26 0
z27 1
z28 0
z29 0
z30 0
z31 0
z32 0
z33 0
z34 0
z35 0
z36 0
z37 0
z38 0
z39 0
z40 0
z41 0
z42 0
z43 0
z44 0
z45 0
z46 0
z47 0
z48 0
z49 0
z50 0
z51 0
z52 0
z53 0
z54 1
z55 0
z56 0
z57 1
z58 0
z59 0
z60 1
z61 1
z62 0
z63 1
z64 0
z65 1
z66 0
z67 1
z68 0
z69 0
z70 0
z71 0
z72 0
z73 0
z74 0
z75 0
z76 0
z77 0
z78 0
z79 0
z80 0
z81 0
z82 0
z83 0
z84 0
z85 0
z86 0
z87 0
z88 1
z89 0
z90 0
z91 1
z92 0
z93 0
z94 0
z95 0
z96 0
z97 0
z98 0
z99 0
z100 0
z101 0
z102 0
z103 0
z104 0
z105 0
z106 1
z107 0
z108 0
z109 0
z110 0
z111 1
z112 0
z113 0
z114 0
z115 0
z116 0
z117 0
z118 0
z119 0
z120 0
z121 0
z122 0
z123 0
z124 0
z125 0
z126 0
z127 0
z128 0
z129 0
z130 0
z131 0
z132 0
z133 0
z134 0
z135 0
z136 0
z137 0
z138 0
z139 0
z140 0
z141 0
z142 0
z143 0
z144 0
z145 0
z146 0
z147 0
z148 0
z149 0
z150 0
z151 0
z152 0
z153 1
z154 0
z155 0
z156 0
z157 0
z158 0
z159 0
z160 0
z161 0
z162 0
z163 0
z164 0
z165 0
z166 0
z167 0
z168 0
z169 0
z170 0
z171 0
z172 0
z173 0
z174 0
z175 0
z176 0
z177 0
z178 0
z179 0
z180 0
z181 0
z182 0
z183 1
z184 0
z185 0
z186 0
z187 1
z188 0
z189 0
z190 0
z191 0
z192 0
z193 0
z194 0
z195 1
z196 0
z197 0
z198 0
z199 0
z200 0
z201 0
z202 0
z203 0
z204 0
z205 0
z206 1
z207 0
z208 0
z209 0
z210 0
z211 0
z212 0
z213 0
z214 0
z215 0
z216 0
z217 0
z218 0
z219 0
z220 0
z221 1
z222 0
z223 0
z224 0
z225 0
z226 0
z227 0
z228 0
z229 0
z230 1
z231 0
z232 0
z233 0
z234 0
z235 0
z236 0
z237 0
z238 0
z239 0
z240 0
z241 1
z242 0
z243 0
z244 0
z245 0
z246 0
z247 0
z248 0
z249 0
z250 1
z251 0
z252 0
z253 0
z254 0
z255 0
z256 0
z257 0
z258 0
z259 0
z260 0
z261 0
z262 0
z263 0
z264 1
z265 0
z266 0
z267 1
z268 0
z269 0
z270 0
z271 0
z272 0
z273 0
z274 0
z275 0
z276 0
z277 1
z278 0
z279 0
z280 0
z281 0
z282 1
z283 0
z284 0
z285 0
z286 0
z287 0
z288 0
z289 0
z290 1
z291 1
z292 0
z293 0
z294 0
z295 0
z296 0
z297 0
z298 0
z299 0
z300 0
z301 0
z302 0
z303 0
z304 0
z305 0
z306 0
z307 0
z308 0
z309 1
z310 0
z311 1
z312 0
z313 0
z314 0
z315 0
z316 1
z317 0
z318 0
z319 0
z320 0
z321 0
z322 0
z323 0
z324 0
z325 0
z326 0
z327 0
z328 0
z329 0
z330 0
z331 0
z332 0
z333 0
z334 0
z335 0
z336 0
z337 0
z338 0
z339 0
z340 0
z341 0
z342 0
z343 0
z344 0
z345 0
z346 0
z347 0
z348 0
z349 0
z350 0
z351 0
z352 0
z353 0
z354 0
z355 0
z356 0
z357 0
z358 1
z359 0
z360 1
z361 0
z362 0
z363 0
z364 0
z365 0
z366 0
z367 0
z368 1
z369 0
z370 0
z371 0
z372 0
z373 0
z374 0
z375 0
z376 0
z377 0
z378 0
z379 0
z380 0
z381 0
z382 0
z383 1
z384 0
z385 0
z386 0
z387 0
z388 0
z389 0
z390 1
z391 1
z392 1
z393 0
z394 0
z395 0
z396 0
z397 0
z398 0
z399 0
z400 0
z401 0
z402 0
z403 0
z404 0
z405 0
z406 0
z407 0
z408 0
z409 0
z410 0
z411 0
z412 0
z413 0
z414 0
z415 0
z416 0
z417 0
z418 0
z419 0
z420 0
z421 0
z422 0
z423 0
z424 1
z425 0
z426 0
z427 0
z428 0
z429 0
z430 0
z431 0
z432 0
z433 0
z434 0
z435 0
z436 0
z437 0
z438 0
z439 0
z440 0
z441 0
z442 0
z443 0
z444 1
z445 1
z446 0
z447 0
z448 0
z449 0
z450 0
z451 0
z452 0
